Version identifier: 20.1.0.0 | 2020-11-10 | 9bedb6d68
Tried aggregator 2 times.
MIP Presolve eliminated 906 rows and 540 columns.
MIP Presolve modified 1746 coefficients.
Aggregator did 109 substitutions.
Reduced MIP has 691 rows, 558 columns, and 2199 nonzeros.
Reduced MIP has 134 binaries, 424 generals, 0 SOSs, and 0 indicators.
Presolve time = 0.01 sec. (3.72 ticks)
Found incumbent of value 36.000000 after 0.01 sec. (6.33 ticks)
Probing fixed 20 vars, tightened 165 bounds.
Probing time = 0.00 sec. (0.52 ticks)
Tried aggregator 1 time.
Detecting symmetries...
MIP Presolve eliminated 300 rows and 20 columns.
MIP Presolve modified 34 coefficients.
Reduced MIP has 391 rows, 538 columns, and 1279 nonzeros.
Reduced MIP has 190 binaries, 348 generals, 0 SOSs, and 0 indicators.
Presolve time = 0.00 sec. (1.41 ticks)
Probing time = 0.00 sec. (0.11 ticks)
Clique table members: 21.
MIP emphasis: balance optimality and feasibility.
MIP search method: dynamic search.
Parallel mode: deterministic, using up to 24 threads.
Root relaxation solution time = 0.00 sec. (0.91 ticks)

        Nodes                                         Cuts/
   Node  Left     Objective  IInf  Best Integer    Best Bound    ItCnt     Gap

*     0+    0                           36.0000        0.0000           100.00%
      0     0        0.0000    28       36.0000        0.0000      121  100.00%
*     0+    0                           13.0000        0.0000           100.00%
      0     0        1.3333    47       13.0000      Cuts: 83      278   89.74%
*     0+    0                           11.0000        1.3333            87.88%
      0     0        2.0758   121       11.0000      Cuts: 48      360   81.13%
      0     0        2.1481   160       11.0000      Cuts: 72      402   80.47%
      0     0        2.1556   163       11.0000      Cuts: 44      445   80.40%
      0     0        2.2925   137       11.0000      Cuts: 44      504   79.16%
      0     0        2.5000   157       11.0000      Cuts: 57      551   77.27%
      0     0        2.5000   123       11.0000      Cuts: 53      581   77.27%
      0     0        2.6000   154       11.0000      Cuts: 47      611   76.36%
      0     0        2.6776   176       11.0000      Cuts: 40      686   75.66%
      0     0        3.1429   160       11.0000      Cuts: 76      751   71.43%
      0     0        3.1429   168       11.0000      Cuts: 47      808   71.43%
      0     0        3.1429    78       11.0000      Cuts: 14      820   71.43%
      0     0        3.1429   159       11.0000      Cuts: 55      874   71.43%
*     0+    0                           10.0000        3.1429            68.57%
*     0+    0                            9.0000        3.1429            65.08%
      0     0        cutoff              9.0000        9.0000      874    0.00%
Elapsed time = 0.30 sec. (75.34 ticks, tree = 0.01 MB, solutions = 5)

Cover cuts applied:  3
Implied bound cuts applied:  14
Flow cuts applied:  4
Mixed integer rounding cuts applied:  16
Zero-half cuts applied:  38
Gomory fractional cuts applied:  4

Root node processing (before b&c):
  Real time             =    0.30 sec. (75.42 ticks)
Parallel b&c, 24 threads:
  Real time             =    0.00 sec. (0.00 ticks)
  Sync time (average)   =    0.00 sec.
  Wait time (average)   =    0.00 sec.
                          ------------
Total (root+branch&cut) =    0.30 sec. (75.42 ticks)

Solution status = Optimal
Solution LB = 9
Solution UB = 9
Runtime = 0.311243 seconds
	Command being timed: "/home/min/git_repos/CS598MEBProject/CNT-ILP/build/cnt -s 2 ./output/k6_n20/simC_c1_k6_n20_u1_s2_del02.input-right.cnp"
	User time (seconds): 5.44
	System time (seconds): 0.03
	Percent of CPU this job got: 1689%
	Elapsed (wall clock) time (h:mm:ss or m:ss): 0:00.32
	Average shared text size (kbytes): 0
	Average unshared data size (kbytes): 0
	Average stack size (kbytes): 0
	Average total size (kbytes): 0
	Maximum resident set size (kbytes): 58268
	Average resident set size (kbytes): 0
	Major (requiring I/O) page faults: 0
	Minor (reclaiming a frame) page faults: 11643
	Voluntary context switches: 2320
	Involuntary context switches: 686
	Swaps: 0
	File system inputs: 0
	File system outputs: 16
	Socket messages sent: 0
	Socket messages received: 0
	Signals delivered: 0
	Page size (bytes): 4096
	Exit status: 0
